NAME : n150w140.004.898.tour
COMMENT : Length = 898
COMMENT : Found by LKH [Keld Helsgaun] Tue May  2 05:48:48 2017
TYPE : TOUR
DIMENSION : 151
TOUR_SECTION
1
48
87
142
38
20
36
57
61
108
77
128
150
68
109
85
9
66
94
133
46
84
101
39
143
50
115
116
42
15
86
129
54
11
53
73
146
49
79
78
47
126
91
92
56
140
131
119
134
72
28
59
55
10
125
44
122
4
97
102
113
30
127
98
27
75
26
71
96
25
12
112
124
105
14
31
114
120
64
74
62
107
58
148
60
139
103
7
51
118
111
93
80
2
149
136
45
6
29
32
76
104
65
123
130
40
8
121
22
89
21
17
88
13
82
41
70
34
144
106
52
19
137
117
23
67
43
18
110
16
33
95
81
5
138
37
141
83
24
63
69
147
100
135
90
35
132
151
99
3
145
-1
EOF
